letting n =  10
letting blocks =  [[1, 1], [1, 4], [1, 6], [2, 1], [2, 2], [2, 5], [2, 6], [2, 7], [2, 9], [3, 1], [3, 2], [3, 4], [3, 9], [3, 10], [4, 3], [4, 4], [4, 5], [4, 7], [4, 8], [4, 9], [5, 1], [5, 2], [5, 4], [5, 7], [5, 10], [6, 1], [6, 5], [6, 6], [6, 8], [6, 9], [7, 4], [7, 5], [7, 6], [7, 7], [7, 10], [8, 4], [8, 5], [8, 6], [8, 7], [8, 9], [9, 3], [9, 6], [9, 8], [9, 10], [10, 1], [10, 5], [10, 7], [10, 8], [10, 9], [10, 10]]
